16 965
525 7 482 7 365 7 115 9 940 13
525 7 482 7 365 7 115 9 940 13
525 7 482 7 365 7 115 9 940 13
528 7 485 7 368 7 122 9 951 13
528 7 485 7 368 7 122 9 951 13
528 7 485 7 368 7 122 9 951 13
525 7 445 7 264 7 63 9 877 13
525 7 445 7 264 7 63 9 877 13
525 7 479 7 358 7 113 12
525 7 479 7 358 7 113 12
525 7 447 7 265 7 64 9 882 13
525 7 482 7 365 7 115 9 943 13
525 7 482 7 365 7 115 9 943 13
525 7 479 7 355 7 106 9 927 13
525 7 479 7 355 7 106 9 927 13
525 7 477 7 390 7 241 9 75 14 911 18 756 25
